20
1 0 35
2 0 85
2 1 80
3 0 4
3 1 97
3 2 11
4 0 33
4 1 8
4 2 43
4 3 62
5 0 56
5 1 24
5 2 12
5 3 20
5 4 73
6 0 93
6 1 10
6 2 23
6 3 78
6 4 99
6 5 16
7 0 30
7 1 48
7 2 33
7 3 7
7 4 24
7 5 4
7 6 52
8 0 91
8 1 12
8 2 66
8 3 60
8 4 51
8 5 5
8 6 71
8 7 69
9 0 30
9 1 92
9 2 40
9 3 94
9 4 17
9 5 43
9 6 18
9 7 6
9 8 98
10 0 2
10 1 28
10 2 37
10 3 3
10 4 61
10 5 5
10 6 21
10 7 53
10 8 21
10 9 1
11 0 12
11 1 79
11 2 72
11 3 87
11 4 98
11 5 86
11 6 72
11 7 83
11 8 25
11 9 71
11 10 83
12 0 90
12 1 91
12 2 20
12 3 7
12 4 21
12 5 69
12 6 44
12 7 25
12 8 36
12 9 68
12 10 31
12 11 37
13 0 34
13 1 53
13 2 19
13 3 51
13 4 72
13 5 74
13 6 25
13 7 65
13 8 85
13 9 75
13 10 76
13 11 58
13 12 53
14 0 85
14 1 34
14 2 58
14 3 29
14 4 13
14 5 4
14 6 76
14 7 22
14 8 94
14 9 77
14 10 14
14 11 97
14 12 67
14 13 36
15 0 82
15 1 47
15 2 75
15 3 34
15 4 85
15 5 43
15 6 16
15 7 24
15 8 79
15 9 57
15 10 90
15 11 86
15 12 81
15 13 32
15 14 26
16 0 4
16 1 100
16 2 30
16 3 69
16 4 65
16 5 28
16 6 93
16 7 74
16 8 98
16 9 84
16 10 84
16 11 31
16 12 73
16 13 26
16 14 8
16 15 23
17 0 13
17 1 66
17 2 21
17 3 83
17 4 16
17 5 42
17 6 74
17 7 9
17 8 68
17 9 45
17 10 67
17 11 55
17 12 99
17 13 5
17 14 89
17 15 88
17 16 20
18 0 70
18 1 76
18 2 16
18 3 37
18 4 48
18 5 23
18 6 86
18 7 27
18 8 92
18 9 20
18 10 29
18 11 31
18 12 41
18 13 6
18 14 9
18 15 94
18 16 49
18 17 47
19 0 78
19 1 56
19 2 75
19 3 3
19 4 66
19 5 72
19 6 5
19 7 27
19 8 43
19 9 20
19 10 34
19 11 8
19 12 44
19 13 31
19 14 25
19 15 62
19 16 42
19 17 27
19 18 25
